int NumberPatients = 123
int NumberOfRooms = 1
int NumberSurgeons = 19
int NumberOfDays = 6
Duration = [85,103,72,98,65,100,66,98,97,32,145,47,60,201,107,72,78,53,32,98,59,31,68,66,119,66,123,85,66,58,166,50,208,41,39,46,112,119,103,166,117,30,145,32,103,65,53,98,60,256,47,93,103,32,98,98,98,238,66,205,112,125,166,32,98,66,66,32,198,117,60,66,103,93,140,103,92,107,79,198,66,66,50,201,120,66,103,103,60,103,31,66,66,103,97,217,119,53,93,47,119,98,60,58,119,98,145,159,30,107,98,210,98,227,98,132,95,103,103,238,252,85,256];
Priority = [0,0,0,0,0,0,0,0,0,0,0,0,0,0,0,0,0,0,0,0,0,0,0,0,0,0,0,0,0,0,0,0,0,0,0,0,0,0,0,0,0,0,0,0,0,0,0,0,0,0,1,0,0,0,0,0,0,0,0,0,0,0,0,0,0,0,0,0,0,0,0,0,0,0,0,0,0,0,0,0,0,0,0,0,0,0,0,0,0,0,0,0,0,0,0,0,0,0,0,0,0,0,0,0,0,0,0,0,0,0,0,0,0,0,0,0,0,0,0,0,0,0,0];
Waiting = [43,99,46,24,94,52,36,261,60,73,375,79,534,158,31,354,106,1096,116,57,93,65,106,70,24,196,37,107,66,144,46,67,52,113,49,382,478,84,53,102,102,58,66,190,218,39,170,45,155,25,45,95,123,25,24,172,64,57,43,183,24,277,172,518,39,141,35,72,57,60,183,84,84,142,155,36,56,32,445,171,67,456,106,155,155,57,297,141,221,24,288,141,65,57,127,163,464,284,70,315,79,25,141,95,135,106,116,80,213,21,56,205,155,65,548,204,221,49,78,57,190,116,121];
Surgeon = [4,5,3,3,1,6,1,4,4,2,6,1,4,3,4,2,3,15,5,6,2,8,6,4,11,2,1,2,3,8,1,4,6,5,4,6,3,3,1,6,5,12,1,6,7,2,3,7,10,3,1,2,8,2,6,3,2,3,1,2,6,3,6,1,1,3,5,1,1,5,1,1,6,4,5,8,6,2,4,6,1,3,3,6,2,8,6,2,6,3,1,1,2,1,1,2,6,3,3,7,2,7,2,4,6,5,7,4,3,3,8,5,9,6,1,1,3,4,3,3,5,6,9];
BlockAvailability = [[[0,1]],[[1,0]],[[1,0]],[[0,0]],[[1,1]],[[0,0]]];
SurgeonAvailability = [[[1,1],[1,1],[1,0],[1,1],[1,0],[1,1]],[[0,1],[1,0],[1,0],[1,1],[1,1],[1,1]],[[1,1],[1,1],[1,1],[1,1],[1,1],[1,1]],[[1,1],[0,1],[1,0],[1,1],[0,1],[1,1]],[[1,0],[1,0],[1,1],[0,1],[1,1],[1,1]],[[1,1],[1,1],[1,1],[0,1],[1,1],[1,1]],[[1,1],[1,1],[1,1],[0,1],[0,0],[1,1]],[[1,1],[0,0],[1,1],[0,0],[1,1],[1,1]],[[1,1],[1,1],[1,1],[0,1],[1,1],[1,1]],[[1,0],[1,1],[0,1],[1,0],[0,0],[1,1]],[[1,0],[1,1],[1,1],[1,1],[1,0],[0,1]],[[1,0],[0,1],[1,0],[1,1],[1,1],[0,1]],[[1,1],[1,1],[1,0],[1,0],[1,1],[1,1]],[[1,1],[1,0],[1,0],[0,1],[1,1],[0,0]],[[1,1],[1,1],[1,1],[0,1],[1,0],[0,1]],[[1,1],[1,1],[1,1],[0,1],[0,1],[1,1]],[[0,1],[1,0],[1,1],[1,0],[1,1],[0,1]],[[1,1],[0,1],[1,1],[0,1],[1,1],[1,1]],[[0,1],[0,1],[1,1],[1,1],[1,1],[1,1]]];
